! H2O test calculation
!   semiempirical calculation, using the MOPAC/GAMESS combo
!
!
 $CONTRL SCFTYP=RHF RUNTYP=GRADIENT COORD=UNIQUE ICHARG=0 UNITS=ANGS $END
 $SYSTEM TIMLIM=10 $END
 $BASIS  GBASIS=PM3 NGAUSS=3 $END
 $DATA
H2O in semiempirical models(PM3)
Cn 1

O   8.0      -0.0024430      -0.0039875       0.0020803  
H   1.0       0.7364180      -0.5729415       0.0006263  
H   1.0      -0.6859147      -0.5998505       0.0023492  
 $END 
