&CONTROL
  calculation = 'scf',
  pseudo_dir = '/projects/academic/alexeyak/Software/PSEUDO/SSSP/SSSP_acc_PBE/',
  outdir = './',
  prefix = 'x0',
  tprnfor = .true.
  disk_io = 'low',
  wf_collect = .true.,
/

&SYSTEM
  ibrav = 0,
  celldm(1) = 1.89 ,
  nat = 24,
  ntyp = 3,
  nspin = 2,
  nbnd = 42,
  ecutwfc = 30,
  tot_charge = 0.0,
  occupations = 'from_input',
  nosym = .true.,
/

&ELECTRONS
  electron_maxstep = 20,
  conv_thr = 1.D-5,
  mixing_beta = 0.45,
/

&IONS
  ion_dynamics = 'verlet',
  ion_temperature = 'andersen',
  tempw = 300.00 ,
  nraise = 1,
/


ATOMIC_SPECIES
 C  12.01  C_pbe_v1.2.uspp.F.UPF
 H  1.008  H.pbe-rrkjus_psl.0.1.UPF
 N  14.01  N.pbe.theos.UPF

K_POINTS gamma
                               
CELL_PARAMETERS
    15.0000000    0.0000000    0.0000000
     0.0000000   15.0000000    0.0000000
     0.0000000    0.0000000   15.0000000
 
ATOMIC_POSITIONS (alat)

C      -0.7921873      -1.3978826      -3.9966631  
C      -1.2390908      -2.2094528      -2.9508344  
C      -1.3453450      -1.6309438      -1.6781390  
C      -1.2056260      -0.2294548      -1.4839611  
C      -0.7450301       0.5045332      -2.5167261  
C      -0.4011990      -0.0982583      -3.7611111  
H      -0.7061627      -1.7886210      -5.0171305  
H      -1.2868544      -3.3431317      -3.0019017  
H      -1.3967163       0.1370992      -0.4876160  
H      -0.6442831       1.5795629      -2.3834627  
H      -0.0126609       0.4895906      -4.6118740  
N      -1.5015345      -2.4791924      -0.5657116  
N      -1.1620371      -1.8428509       0.4748271  
C      -0.5526130      -2.4729855       1.5389959  
C       0.0434455      -3.7607691       1.3295916  
C      -0.2268500      -1.6290224       2.6397231  
C       1.1061913      -4.0354533       2.1320422  
H      -0.1616443      -4.2910340       0.3896458  
C       0.7919808      -2.0219451       3.4581065  
H      -0.8665698      -0.6383631       2.6838181  
C       1.5391083      -3.1636041       3.1160658  
H       1.6949780      -4.9531005       1.9921909  
H       1.0128996      -1.4035436       4.3473847  
H       2.3541976      -3.3917602       3.8603145  

OCCUPATIONS
  1.00000000   1.00000000   1.00000000   1.00000000   1.00000000   1.00000000   1.00000000   1.00000000   1.00000000   1.00000000 
  1.00000000   1.00000000   1.00000000   1.00000000   1.00000000   1.00000000   1.00000000   1.00000000   1.00000000   1.00000000 
  1.00000000   1.00000000   1.00000000   1.00000000   1.00000000   1.00000000   1.00000000   1.00000000   1.00000000   1.00000000 
  1.00000000   1.00000000   1.00000000   1.00000000   0.00000000   0.00000000   0.00000000   0.00000000   0.00000000   0.00000000 
  0.00000000   0.00000000 

  1.00000000   1.00000000   1.00000000   1.00000000   1.00000000   1.00000000   1.00000000   1.00000000   1.00000000   1.00000000 
  1.00000000   1.00000000   1.00000000   1.00000000   1.00000000   1.00000000   1.00000000   1.00000000   1.00000000   1.00000000 
  1.00000000   1.00000000   1.00000000   1.00000000   1.00000000   1.00000000   1.00000000   1.00000000   1.00000000   1.00000000 
  1.00000000   1.00000000   1.00000000   1.00000000   0.00000000   0.00000000   0.00000000   0.00000000   0.00000000   0.00000000 
  0.00000000   0.00000000 
